150 9059386
100 86 101 25 89 147 82 52 60 24 118 131 64 46 74 33 113 129 126 130 135 116 65 139 69 99 51 93 87 16 79 28 39 21 122 104 48 66 11 5 10 62 35 54 133 91 121 36 34 103 149 127 141 106 58 42 2 109 22 107 67 134 145 148 120 14 17 114 43 40 57 18 92 55 4 137 23 110 63 115 136 97 1 90 140 45 123 7 37 128 112 84 117 31 8 53 80 75 49 78 96 83 108 72 38 146 105 56 138 85 32 144 81 88 150 61 59 142 68 124 102 44 132 111 119 76 143 9 95 26 27 15 6 71 3 41 73 47 125 70 30 13 98 29 50 94 20 19 12 77 
